data;

set A := 264 512 62 954 412 376 296 506 46 624 546 140 130 912 82 750 90 246 614 50 68 56 190 786 854 910 960 728 608 474 184 58 312 836 484 146 8 520 950 98 28 234 156 282 982 570 762 514;
param T := 12000;

end;
